BEGIN IONS
PEPMASS=389.389
CHARGE=1
MSLEVEL=2
SOURCE_INSTRUMENT=LC-ESI-qTof
FILENAME=f.axelleblond/manzamine_v2/probes/Marazano_skeleton_40eV.mgf;
SEQ=*..*
IONMODE=Positive
ORGANISM=GNPS-LIBRARY
NAME=Marazano_skeleton_40eV M+H
PI=Mehdi Beniddir
DATACOLLECTOR=Axel Leblond
SMILES=CCCCN1[C@H]2C(C3)C(N(C[C@@]3(CCCC)C41)CCCC)C4(CCCC)CC2
INCHI=InChI=1S/C26H48N2/c1-5-9-14-25-19-21-22-13-16-26(15-10-6-2,24(25)28(22)18-12-8-4)23(21)27(20-25)17-11-7-3/h21-24H,5-20H2,1-4H3/t21-,22-,23?,24?,25+,26?/m1/s1
INCHIAUX= 
PUBMED= 
SUBMITUSER=axelleblond
LIBRARYQUALITY=3
SPECTRUMID=CCMSLIB00011431741
SCANS=1
100.111862	16861.300781
100.118568	2549.26001
105.069923	33416.890625
105.07695	4923.25
105.089729	1117.269043
106.073418	1851.284058
107.085472	19908.199219
107.092377	2888.349121
108.080719	1910.22998
108.08815	1088.505981
109.088371	1738.620972
109.101456	10702.070312
109.107124	1013.752014
110.096275	3728.60498
110.104332	2043.366943
112.112122	147136.796875
112.118996	17933.710938
112.133858	5574.004883
113.114929	5956.621094
113.121925	1296.370972
114.127823	3528.989014
117.069763	10273.980469
117.077408	1256.875
119.085464	40534.75
119.092926	6533.125977
119.10759	1529.265015
120.080048	1853.259033
120.089058	1867.626953
121.101501	16769.910156
121.109314	2307.75293
122.096466	4177.855957
122.104729	2171.289062
123.105003	1330.894043
123.116737	5899.744141
124.112236	22778.599609
124.119835	4113.526855
126.127754	58364.191406
126.134956	8794.973633
126.145477	2034.321045
126.153564	2428.308105
127.130928	3021.031006
129.070786	1193.128052
131.085831	14819.44043
131.092834	2191.774902
132.089417	1806.340942
132.093765	1133.146973
133.101318	18130.089844
133.109818	2338.861084
134.096558	3830.930908
134.103409	1842.198975
135.104904	1174.400024
135.11702	17934.789062
135.123978	2237.531006
136.111969	12122.709961
136.12027	2680.121094
137.119522	3561.418945
137.128174	1251.19104
137.133194	2176.271973
138.127899	12303.719727
138.136078	2168.8479
140.143402	16174.290039
140.151779	2074.021973
142.158676	7015.893066
143.084808	2105.5979
145.101089	13194.740234
145.110489	1551.090942
146.096252	1750.819946
147.117142	25929.769531
147.125412	4069.528076
147.141434	1119.008057
148.11142	2126.924072
148.120636	1485.895996
149.119431	2421.8479
149.132401	16026.419922
149.140472	3311.38208
150.127823	14756.719727
150.136292	2975.275879
151.134598	1953.892944
151.148315	2257.577881
152.143295	23430.609375
152.172211	1014.515991
153.149826	1150.109009
154.159027	9505.605469
154.167786	1281.322021
156.174484	13048.910156
157.100006	1608.892944
157.176956	1562.061035
159.11673	5066.554199
160.111221	1697.19104
161.132523	32221.259766
161.140869	4919.227051
161.157791	1185.026001
162.128174	8114.817871
162.1362	4141.330078
163.134354	2397.710938
163.148102	8139.015137
163.157715	1492.416992
164.14328	6169.681152
164.15184	1343.312988
165.150574	1712.187988
166.158661	6257.137207
166.167694	1113.973022
168.174622	73941.960938
168.182999	10846.320312
168.201599	3298.585938
169.177872	4788.696777
169.186539	1562.090942
172.85997	1006.781982
173.13269	5100.37793
174.128021	2608.066895
175.136963	1259.243042
175.148056	15958.679688
175.157745	2990.289062
176.143677	12128.530273
176.151749	3047.253906
177.151062	5017.563965
177.164322	3421.97998
178.15918	10330.349609
178.168121	1928.430054
180.174667	46651.910156
180.183228	8510.761719
180.196014	1938.802002
180.205399	2152.690918
181.178452	2797.000977
182.190414	57423.671875
182.199478	9526.826172
182.217224	2365.991943
183.193283	2831.537109
185.132278	1565.498047
187.148087	13210.599609
187.157547	2276.575928
188.144089	3170.639893
188.152786	1751.651001
189.150986	1339.608032
189.162933	7114.413086
189.172379	1474.615967
190.158615	10270.589844
190.167862	1932.823975
191.166641	2224.903076
191.177246	1151.802002
191.182663	1231.302979
192.174377	20719.699219
192.182617	4175.990234
192.206009	1149.116943
193.181396	3459.405029
194.190323	58243.5
194.200027	11086.419922
194.221848	2922.001953
195.194443	6315.618164
196.204941	5989.486816
196.214828	1037.624023
201.163773	1968.264038
202.159317	10768.120117
202.169342	2145.343018
203.163879	1765.234985
203.179062	4637.47998
204.174652	8801.649414
204.18515	1596.842041
205.18158	2284.060059
205.195236	3228.613037
206.190308	11934.219727
206.199661	2253.285889
207.195892	1085.615967
208.205414	9262.28125
208.216141	1832.312012
210.219772	1130.090942
216.174942	11017.150391
216.186005	1797.25
217.181946	2361.159912
217.194977	3753.602051
218.190369	14565.19043
218.201416	2368.166016
219.194626	2623.379883
219.199188	1736.209961
220.206131	5493.467773
220.216888	1088.0
221.210144	1180.845947
221.215729	1062.675049
222.219818	2207.639893
229.195297	2146.808105
230.19043	5915.294922
230.20105	1741.594971
231.194717	1277.249023
231.199478	1099.521973
231.210876	13308.009766
231.221634	2756.224121
232.205887	17546.050781
232.215942	4484.615234
233.21051	2547.714111
233.216354	1370.042969
233.224945	3720.301025
234.221451	51044.820312
234.231155	10044.540039
234.251251	2340.298096
235.224854	5491.943848
236.237045	6474.118164
236.248138	1147.582031
243.210236	3076.64209
244.205643	5672.03418
244.215088	1479.985962
245.211273	1176.938965
245.215652	1028.199951
245.225998	2829.666992
246.222443	4114.834961
247.229813	2406.555908
248.237839	8417.348633
248.248657	1570.248047
250.251846	1876.368042
258.221527	6308.966797
258.232513	1007.005005
259.229523	4614.416992
259.240479	1546.531006
260.236969	11341.330078
260.247681	2007.817993
262.25351	2076.758057
272.236053	1498.275024
274.252441	3500.325928
275.262909	1246.282959
276.270782	1181.881958
278.283142	1984.187988
288.268219	6097.601074
288.279755	1394.009033
289.262543	1193.655029
290.284027	52811.539062
290.295776	9794.749023
290.322571	2941.2229
291.287842	6227.100098
291.298615	2048.989014
302.284576	18333.490234
302.297058	3473.072021
303.284973	2456.165039
303.29068	1213.421997
304.300018	49553.390625
304.311554	9337.976562
304.332581	2554.940918
304.341461	2738.174072
305.303162	7348.0
306.312469	1429.000977
314.281769	1359.901978
316.300049	151234.90625
316.311554	23033.960938
316.335785	8283.098633
317.302887	19267.630859
317.330078	1323.525024
318.31546	8008.674805
318.326569	1890.11499
319.318817	1085.01001
389.389252	100732.601562
389.401947	18936.529297
389.428497	4930.059082
END IONS

