BEGIN IONS
PEPMASS=389.389
CHARGE=1
MSLEVEL=2
SOURCE_INSTRUMENT=LC-ESI-qTof
FILENAME=f.axelleblond/manzamine_v2/probes/Keramaphidin_B_skeleton_40eV.mgf;
SEQ=*..*
IONMODE=Positive
ORGANISM=GNPS-LIBRARY
NAME=Keramaphidin_B_skeleton_40eV M+H
PI=Mehdi Beniddir
DATACOLLECTOR=Axel Leblond
SMILES=CCCC[C@]12CN(CCCC)CC[C@H]1[C@@H](C=C(CCCC)[C@@H]23)CN3CCCC
INCHI=InChI=1S/C26H48N2/c1-5-9-13-22-19-23-20-28(17-12-8-4)25(22)26(15-10-6-2)21-27(16-11-7-3)18-14-24(23)26/h19,23-25H,5-18,20-21H2,1-4H3/t23-,24-,25-,26-/m0/s1
INCHIAUX= 
PUBMED= 
SUBMITUSER=axelleblond
LIBRARYQUALITY=3
SPECTRUMID=CCMSLIB00011431740
SCANS=1
100.111565	73573.203125
100.118324	9472.454102
100.13459	2966.041992
101.115593	2096.095947
105.069649	23231.740234
105.075325	2988.018066
106.06353	1089.448975
106.073036	1517.454956
107.073189	1352.189941
107.08493	10806.009766
107.092163	1711.593018
108.079865	3367.643066
109.10041	2689.093994
110.096428	4375.820801
112.111786	14969.919922
112.119438	2505.531006
114.127014	13542.629883
114.134369	1859.064941
117.069862	3803.24292
119.085182	39122.058594
119.092773	5676.48877
119.108467	1476.652954
120.079948	1383.375
120.08847	2605.531006
121.088226	1443.064941
121.100792	3381.99707
122.095978	1653.104004
123.116074	3072.991943
124.111649	5556.168945
124.11908	1184.958984
126.127441	37669.921875
126.135246	5824.725098
126.145233	1191.907959
126.153061	1382.062988
127.129715	1189.569946
127.132095	1339.350952
131.085419	4452.38916
133.088394	1207.005005
133.1008	14908.530273
133.10881	2129.438965
134.096161	7450.688965
134.100998	1733.203979
134.105545	1495.083984
135.100342	1101.526001
135.11673	4286.676758
136.111725	146890.296875
136.119202	19950.439453
136.135574	5800.335938
137.115173	7968.546875
137.118942	4905.777832
137.128784	1123.562988
138.127808	12757.05957
138.13591	2190.574951
139.133087	1116.668945
140.143005	1755.926025
142.158661	1785.152954
145.101151	3719.775879
147.116821	14298.419922
147.126053	2184.687012
148.112305	2831.814941
148.119339	1003.080994
149.118942	3004.469971
149.132004	6015.842773
149.139969	1044.116943
150.127197	18480.589844
150.135086	2925.115967
151.135071	2382.297119
152.142899	54589.890625
152.151596	7456.13916
152.167618	2128.329102
153.145996	3702.441895
153.154648	1067.241943
154.158325	2040.805054
156.17337	1256.255981
159.116638	1485.394043
161.132446	25192.359375
161.140579	3159.168945
161.158752	1052.19104
162.127075	16195.25
162.135666	4797.723145
162.145172	1279.232056
163.134857	3374.062012
163.147385	2567.129883
164.142975	5918.940918
166.158295	1487.313965
168.174026	24172.5
168.183151	4458.86377
168.203857	1313.224976
169.179031	2038.791992
173.13205	2293.143066
174.127106	2456.431885
175.133698	1050.125977
175.147629	18377.910156
175.156387	2767.045898
176.142517	5890.174805
176.151657	1995.141968
177.151154	13263.160156
177.160355	2738.24707
178.158249	3444.758057
180.173889	3163.00708
182.189011	2847.8479
187.147705	2237.354004
188.142731	6243.168945
188.152405	1485.61499
189.150894	1764.703979
189.163071	7259.925781
190.158035	15291.349609
190.166412	4663.263184
191.165405	5963.647949
191.17659	1044.208008
192.174255	377513.5
192.182114	43380.71875
192.202087	19587.619141
193.177979	27995.320312
193.188217	4559.444824
193.200348	1279.984009
193.210571	1306.805054
194.189774	94749.84375
194.199173	15286.769531
194.221924	4532.073242
195.192841	5865.637207
196.205322	15097.379883
196.2146	2547.88208
197.208832	1473.296021
202.158386	7890.992188
202.168564	1905.524048
203.166565	2086.718994
203.178726	16078.200195
203.187042	2926.069092
203.190765	1910.718018
204.174316	11832.05957
204.182983	3998.110107
205.181946	6066.125
205.193619	1410.996948
206.189697	11338.25
206.200027	1804.68103
207.192566	1037.569946
208.205551	6080.097168
215.178268	1437.665039
216.174088	5310.698242
216.185745	1213.237061
217.180252	1442.146973
217.194321	5983.941895
218.190018	27261.119141
218.198593	6371.721191
218.210831	1242.510986
218.223038	1387.43396
219.196793	4078.624023
219.20636	1068.024048
220.205017	2523.702881
222.221222	1279.271973
230.189682	7174.190918
230.199402	1277.170044
231.196365	1485.876953
231.209396	2690.073975
232.2052	23316.0
232.215439	4830.347168
232.230713	1105.458008
233.210526	2762.051025
234.220917	48028.511719
234.23082	8135.373047
234.251312	2171.138916
235.224304	4255.428223
235.233688	1025.125977
244.204498	7882.796875
244.212982	2144.391113
245.212143	1967.499023
246.220963	11417.75
246.231903	1815.842041
247.22876	3605.614014
247.241852	1047.378052
248.236053	5747.141113
248.248032	1169.222046
258.220856	9784.845703
258.232361	1872.562988
259.22876	2409.726074
260.235992	6532.598145
260.246613	1588.215942
272.236633	1265.040039
274.251923	37218.980469
274.263062	7626.301758
274.279663	1891.402954
274.291565	2099.375977
275.254364	3967.590088
275.25946	1989.628052
276.267517	10647.610352
276.278961	1650.073975
277.275116	1090.718018
286.250763	1801.092041
288.26828	27732.609375
288.294464	1409.383057
288.304962	1753.51001
289.270844	4520.51709
290.283051	20356.490234
290.296051	3375.873047
290.321594	1001.752991
291.287231	2975.821045
300.269562	1417.238037
302.283051	11403.639648
303.287567	1870.093994
304.298798	18926.099609
304.310455	3770.084961
304.327393	1077.020996
305.301575	1751.901978
314.282562	1724.314941
316.299438	18926.419922
316.311554	3277.547119
316.326294	1061.692017
317.300201	3409.335938
317.307404	1654.271973
318.312164	1316.005005
318.318176	1260.790039
387.373016	6596.62793
389.388977	6137.333984
389.404633	1323.996948
END IONS

